c Random generated cnf formula, satisfiable: true
p cnf 10 50
8 -1 10 0
1 6 -8 0
-6 -5 3 0
9 7 5 0
4 -7 -5 0
-3 2 -1 0
9 1 -8 0
-8 -5 2 0
-8 -6 7 0
6 -7 -10 0
-7 -9 1 0
-10 -1 -9 0
6 7 10 0
9 -6 1 0
-5 -1 3 0
7 5 3 0
6 -1 5 0
5 -2 8 0
-10 2 -5 0
-2 5 7 0
2 -3 6 0
8 6 3 0
-3 5 -9 0
2 1 -10 0
7 2 -1 0
1 -3 -10 0
-5 -9 -10 0
10 9 2 0
2 6 -5 0
6 -4 10 0
-7 4 8 0
9 -5 6 0
-7 -1 4 0
2 8 4 0
9 -7 6 0
2 -4 5 0
-9 2 -10 0
1 5 9 0
6 -1 -3 0
10 2 -9 0
1 -4 -6 0
4 3 2 0
-8 10 -3 0
6 -9 -3 0
2 8 -4 0
-1 -7 -10 0
-5 -7 8 0
-6 -4 9 0
9 2 -3 0
3 7 9 0
